Set parameter TokenServer to value "hpc-licenses.hpcc.usc.edu"
Set parameter TimeLimit to value 3600
Gurobi Optimizer version 9.5.1 build v9.5.1rc2 (linux64)
Thread count: 20 physical cores, 20 logical processors, using up to 20 threads
Optimize a model with 14015 rows, 10581 columns and 64598 nonzeros
Model fingerprint: 0x298af496
Variable types: 10514 continuous, 67 integer (67 binary)
Coefficient statistics:
  Matrix range     [1e+00, 1e+00]
  Objective range  [8e-04, 1e+00]
  Bounds range     [1e+00, 1e+00]
  RHS range        [1e+00, 1e+02]
Presolve removed 3086 rows and 3065 columns
Presolve time: 0.21s
Presolved: 10929 rows, 7516 columns, 59737 nonzeros
Variable types: 7456 continuous, 60 integer (60 binary)
Found heuristic solution: objective 264.8866322

Root relaxation: objective 2.705487e+02, 4565 iterations, 0.25 seconds (0.30 work units)

    Nodes    |    Current Node    |     Objective Bounds      |     Work
 Expl Unexpl |  Obj  Depth IntInf | Incumbent    BestBd   Gap | It/Node Time

     0     0  270.54867    0    6  264.88663  270.54867  2.14%     -    0s
     0     0  270.54867    0    6  264.88663  270.54867  2.14%     -    1s
     0     0  270.45143    0    7  264.88663  270.45143  2.10%     -    2s
     0     0  270.45143    0    6  264.88663  270.45143  2.10%     -    2s
     0     0  270.45143    0    6  264.88663  270.45143  2.10%     -    2s
     0     0  270.45143    0    4  264.88663  270.45143  2.10%     -    2s
     0     0  270.34981    0    7  264.88663  270.34981  2.06%     -    2s
     0     0  270.34981    0    6  264.88663  270.34981  2.06%     -    2s
     0     0  270.34861    0    4  264.88663  270.34861  2.06%     -    2s
     0     0  270.34861    0    6  264.88663  270.34861  2.06%     -    2s
     0     0  270.34861    0    8  264.88663  270.34861  2.06%     -    3s
     0     0  270.34861    0    8  264.88663  270.34861  2.06%     -    3s
     0     2  270.34861    0    8  264.88663  270.34861  2.06%     -    3s
     7    10  270.34861    3    7  264.88663  270.34861  2.06%   661    5s
*   22    14               4     268.0378675  270.34861  0.86%   577    6s
H   42    22                     268.0787770  270.34861  0.85%   439    7s
H   46    22                     268.0866740  270.34861  0.84%   425    7s
*   48    22               6     268.7669151  270.34861  0.59%   427    7s
    89    16  270.31762    9    9  268.76692  270.34861  0.59%   353   10s
   211    22  269.64068   19    6  268.76692  270.14100  0.51%   316   15s
H  286    29                     269.0711701  269.94253  0.32%   314   19s
   332    14     cutoff   25       269.07117  269.78780  0.27%   296   20s

Cutting planes:
  MIR: 43
  Flow cover: 30
  RLT: 4
  Relax-and-lift: 3

Explored 388 nodes (118549 simplex iterations) in 21.68 seconds (7.58 work units)
Thread count was 20 (of 20 available processors)

Solution count 6: 269.071 268.767 268.087 ... 264.887

Optimal solution found (tolerance 1.00e-04)
Best objective 2.690711701219e+02, best bound 2.690711701219e+02, gap 0.0000%



#########node  1
V2.5
#########node  2
V1.9
#########node  3
V1.7
#########node  4
0.08695652173913049,0.9130434782608695
#########node  5
1.0,0.0
#########node  6
0.0,1.0
#########node  7
1.0,0.0


Total Solving Time 22.562652826309204
obj value 269.07117012187655
Policy Regret train (Sum) 12.604119272852353
Best Treatment Found train (%) 49.4
treatment classification acc train (%) 42.6
Policy Regret test (Sum) 54.133055780938804
Best Treatment Found test (%) 76.09
treatment classification acc test (%) 39.879999999999995
Set parameter TokenServer to value "hpc-licenses.hpcc.usc.edu"
Set parameter TimeLimit to value 3600
Gurobi Optimizer version 9.5.1 build v9.5.1rc2 (linux64)
Thread count: 20 physical cores, 20 logical processors, using up to 20 threads
Optimize a model with 14015 rows, 10581 columns and 64598 nonzeros
Model fingerprint: 0x298af496
Variable types: 10514 continuous, 67 integer (67 binary)
Coefficient statistics:
  Matrix range     [1e+00, 1e+00]
  Objective range  [8e-04, 1e+00]
  Bounds range     [1e+00, 1e+00]
  RHS range        [1e+00, 1e+02]
Presolve removed 3086 rows and 3065 columns
Presolve time: 0.25s
Presolved: 10929 rows, 7516 columns, 59737 nonzeros
Variable types: 7456 continuous, 60 integer (60 binary)
Found heuristic solution: objective 264.8866322

Root relaxation: objective 2.705487e+02, 4565 iterations, 0.23 seconds (0.30 work units)

    Nodes    |    Current Node    |     Objective Bounds      |     Work
 Expl Unexpl |  Obj  Depth IntInf | Incumbent    BestBd   Gap | It/Node Time

     0     0  270.54867    0    6  264.88663  270.54867  2.14%     -    0s
     0     0  270.54867    0    6  264.88663  270.54867  2.14%     -    1s
     0     0  270.45143    0    7  264.88663  270.45143  2.10%     -    2s
     0     0  270.45143    0    6  264.88663  270.45143  2.10%     -    2s
     0     0  270.45143    0    6  264.88663  270.45143  2.10%     -    2s
     0     0  270.45143    0    4  264.88663  270.45143  2.10%     -    2s
     0     0  270.34981    0    7  264.88663  270.34981  2.06%     -    2s
     0     0  270.34981    0    6  264.88663  270.34981  2.06%     -    2s
     0     0  270.34861    0    4  264.88663  270.34861  2.06%     -    2s
     0     0  270.34861    0    6  264.88663  270.34861  2.06%     -    2s
     0     0  270.34861    0    8  264.88663  270.34861  2.06%     -    2s
     0     0  270.34861    0    8  264.88663  270.34861  2.06%     -    3s
     0     2  270.34861    0    8  264.88663  270.34861  2.06%     -    3s
     7    10  270.34861    3    7  264.88663  270.34861  2.06%   661    5s
*   22    14               4     268.0378675  270.34861  0.86%   577    5s
H   42    22                     268.0787770  270.34861  0.85%   439    7s
H   46    22                     268.0866740  270.34861  0.84%   425    7s
*   48    22               6     268.7669151  270.34861  0.59%   427    7s
   109    14  270.31762   10    9  268.76692  270.31762  0.58%   326   10s
   280    29  268.91164   22    7  268.76692  269.94253  0.44%   311   17s
H  286    29                     269.0711701  269.94253  0.32%   314   17s

Cutting planes:
  MIR: 43
  Flow cover: 30
  RLT: 4
  Relax-and-lift: 3

Explored 388 nodes (118549 simplex iterations) in 19.24 seconds (7.58 work units)
Thread count was 20 (of 20 available processors)

Solution count 6: 269.071 268.767 268.087 ... 264.887

Optimal solution found (tolerance 1.00e-04)
Best objective 2.690711701219e+02, best bound 2.690711701219e+02, gap 0.0000%



#########node  1
V2.5
#########node  2
V1.9
#########node  3
V1.7
#########node  4
0.08695652173913049,0.9130434782608695
#########node  5
1.0,0.0
#########node  6
0.0,1.0
#########node  7
1.0,0.0


Total Solving Time 20.16142463684082
obj value 269.07117012187655
Policy Regret train (Sum) 12.604119272852353
Best Treatment Found train (%) 49.4
treatment classification acc train (%) 42.6
Policy Regret test (Sum) 54.133055780938804
Best Treatment Found test (%) 76.09
treatment classification acc test (%) 39.879999999999995
